0 21 21
1 21 24
2 22 26
3 23 25
4 24 24
5 18 21
6 21 25
7 21 23
8 22 21
9 13 18
10 15 19
11 15 18
12 17 16
13 10 16
14 15 15
15 12 12
16 10 11
17 8 13
18 13 13
19 11 13
20 3 9
21 5 7
22 1 4
23 1 4
24 3 2
25 2 1
26 1 2

